p cnf 430 1488
-191 -70 0
-191 105 0
-191 -96 0
-191 -67 0
-191 -120 0
191 70 -105 96 67 120 0
-192 -160 0
-192 -61 0
-192 -125 0
-192 -187 0
-192 44 0
192 160 61 125 187 -44 0
-193 -120 0
-193 128 0
-193 123 0
-193 101 0
-193 -132 0
193 120 -128 -123 -101 132 0
-194 119 0
-194 73 0
-194 117 0
-194 7 0
-194 43 0
194 -119 -73 -117 -7 -43 0
-195 175 0
-195 -164 0
-195 11 0
-195 119 0
-195 -138 0
195 -175 164 -11 -119 138 0
191 192 193 194 195 0
-196 -100 0
-196 68 0
-196 -179 0
-196 183 0
-196 -189 0
196 100 -68 179 -183 189 0
-197 -58 0
-197 -91 0
-197 -163 0
-197 60 0
-197 180 0
197 58 91 163 -60 -180 0
-198 -24 0
-198 -67 0
-198 6 0
-198 179 0
-198 -167 0
198 24 67 -6 -179 167 0
-199 167 0
-199 115 0
-199 152 0
-199 125 0
-199 181 0
199 -167 -115 -152 -125 -181 0
-200 84 0
-200 -149 0
-200 -8 0
-200 181 0
-200 154 0
200 -84 149 8 -181 -154 0
196 197 198 199 200 0
-201 -114 0
-201 135 0
-201 81 0
-201 124 0
-201 -140 0
201 114 -135 -81 -124 140 0
-202 23 0
-202 -133 0
-202 75 0
-202 -188 0
-202 49 0
202 -23 133 -75 188 -49 0
-203 32 0
-203 168 0
-203 -162 0
-203 93 0
-203 -134 0
203 -32 -168 162 -93 134 0
-204 -115 0
-204 -121 0
-204 45 0
-204 40 0
-204 143 0
204 115 121 -45 -40 -143 0
-205 -17 0
-205 163 0
-205 7 0
-205 -106 0
-205 101 0
205 17 -163 -7 106 -101 0
201 202 203 204 205 0
-206 108 0
-206 -36 0
-206 12 0
-206 129 0
-206 -52 0
206 -108 36 -12 -129 52 0
-207 -130 0
-207 -165 0
-207 -100 0
-207 -186 0
-207 -69 0
207 130 165 100 186 69 0
-208 -103 0
-208 -92 0
-208 -51 0
-208 -22 0
-208 -19 0
208 103 92 51 22 19 0
-209 147 0
-209 -69 0
-209 50 0
-209 -58 0
-209 18 0
209 -147 69 -50 58 -18 0
-210 -146 0
-210 152 0
-210 151 0
-210 107 0
-210 -27 0
210 146 -152 -151 -107 27 0
206 207 208 209 210 0
-211 -114 0
-211 -36 0
-211 -35 0
-211 127 0
-211 58 0
211 114 36 35 -127 -58 0
-212 -14 0
-212 -111 0
-212 1 0
-212 36 0
-212 -18 0
212 14 111 -1 -36 18 0
-213 77 0
-213 60 0
-213 -102 0
-213 74 0
-213 -56 0
213 -77 -60 102 -74 56 0
-214 -3 0
-214 33 0
-214 -34 0
-214 40 0
-214 -16 0
214 3 -33 34 -40 16 0
-215 -43 0
-215 -32 0
-215 120 0
-215 160 0
-215 -126 0
215 43 32 -120 -160 126 0
211 212 213 214 215 0
-216 184 0
-216 150 0
-216 -47 0
-216 100 0
-216 77 0
216 -184 -150 47 -100 -77 0
-217 -67 0
-217 84 0
-217 -135 0
-217 72 0
-217 106 0
217 67 -84 135 -72 -106 0
-218 -72 0
-218 -166 0
-218 -146 0
-218 -94 0
-218 -96 0
218 72 166 146 94 96 0
-219 188 0
-219 -153 0
-219 -123 0
-219 -114 0
-219 134 0
219 -188 153 123 114 -134 0
-220 99 0
-220 182 0
-220 -60 0
-220 -94 0
-220 145 0
220 -99 -182 60 94 -145 0
216 217 218 219 220 0
-221 19 0
-221 138 0
-221 114 0
-221 154 0
-221 -143 0
221 -19 -138 -114 -154 143 0
-222 -14 0
-222 154 0
-222 -175 0
-222 104 0
-222 77 0
222 14 -154 175 -104 -77 0
-223 65 0
-223 -134 0
-223 -74 0
-223 -14 0
-223 -127 0
223 -65 134 74 14 127 0
-224 117 0
-224 114 0
-224 -50 0
-224 121 0
-224 111 0
224 -117 -114 50 -121 -111 0
-225 107 0
-225 -3 0
-225 -158 0
-225 -188 0
-225 -109 0
225 -107 3 158 188 109 0
221 222 223 224 225 0
-226 58 0
-226 -39 0
-226 -55 0
-226 131 0
-226 -23 0
226 -58 39 55 -131 23 0
-227 189 0
-227 77 0
-227 183 0
-227 179 0
-227 127 0
227 -189 -77 -183 -179 -127 0
-228 119 0
-228 69 0
-228 142 0
-228 86 0
-228 -127 0
228 -119 -69 -142 -86 127 0
-229 -118 0
-229 31 0
-229 -10 0
-229 9 0
-229 -67 0
229 118 -31 10 -9 67 0
-230 -20 0
-230 74 0
-230 -64 0
-230 68 0
-230 2 0
230 20 -74 64 -68 -2 0
226 227 228 229 230 0
-231 -135 0
-231 148 0
-231 121 0
-231 -58 0
-231 -180 0
231 135 -148 -121 58 180 0
-232 186 0
-232 4 0
-232 141 0
-232 -17 0
-232 174 0
232 -186 -4 -141 17 -174 0
-233 187 0
-233 66 0
-233 94 0
-233 -183 0
-233 -32 0
233 -187 -66 -94 183 32 0
-234 -135 0
-234 46 0
-234 -152 0
-234 -17 0
-234 -156 0
234 135 -46 152 17 156 0
-235 109 0
-235 45 0
-235 173 0
-235 14 0
-235 -161 0
235 -109 -45 -173 -14 161 0
231 232 233 234 235 0
-236 -117 0
-236 78 0
-236 -99 0
-236 -118 0
-236 51 0
236 117 -78 99 118 -51 0
-237 183 0
-237 -96 0
-237 -135 0
-237 78 0
-237 140 0
237 -183 96 135 -78 -140 0
-238 -117 0
-238 111 0
-238 -44 0
-238 -34 0
-238 150 0
238 117 -111 44 34 -150 0
-239 -106 0
-239 -29 0
-239 -164 0
-239 -12 0
-239 111 0
239 106 29 164 12 -111 0
-240 -162 0
-240 129 0
-240 64 0
-240 190 0
-240 165 0
240 162 -129 -64 -190 -165 0
236 237 238 239 240 0
-241 -57 0
-241 -72 0
-241 95 0
-241 -147 0
-241 155 0
241 57 72 -95 147 -155 0
-242 -171 0
-242 150 0
-242 66 0
-242 -9 0
-242 -90 0
242 171 -150 -66 9 90 0
-243 166 0
-243 -135 0
-243 -114 0
-243 -70 0
-243 -68 0
243 -166 135 114 70 68 0
-244 72 0
-244 -157 0
-244 -4 0
-244 54 0
-244 160 0
244 -72 157 4 -54 -160 0
-245 53 0
-245 35 0
-245 93 0
-245 -24 0
-245 177 0
245 -53 -35 -93 24 -177 0
241 242 243 244 245 0
-246 -96 0
-246 165 0
-246 154 0
-246 135 0
-246 -71 0
246 96 -165 -154 -135 71 0
-247 21 0
-247 -66 0
-247 -62 0
-247 -152 0
-247 -170 0
247 -21 66 62 152 170 0
-248 171 0
-248 169 0
-248 51 0
-248 -17 0
-248 142 0
248 -171 -169 -51 17 -142 0
-249 128 0
-249 32 0
-249 20 0
-249 81 0
-249 -45 0
249 -128 -32 -20 -81 45 0
-250 -65 0
-250 -87 0
-250 120 0
-250 31 0
-250 -64 0
250 65 87 -120 -31 64 0
246 247 248 249 250 0
-251 -134 0
-251 13 0
-251 -80 0
-251 -112 0
-251 -72 0
251 134 -13 80 112 72 0
-252 -32 0
-252 61 0
-252 -36 0
-252 -69 0
-252 48 0
252 32 -61 36 69 -48 0
-253 132 0
-253 -188 0
-253 -131 0
-253 -187 0
-253 24 0
253 -132 188 131 187 -24 0
-254 101 0
-254 77 0
-254 -47 0
-254 19 0
-254 146 0
254 -101 -77 47 -19 -146 0
-255 49 0
-255 -137 0
-255 92 0
-255 -51 0
-255 186 0
255 -49 137 -92 51 -186 0
251 252 253 254 255 0
-256 26 0
-256 125 0
-256 169 0
-256 128 0
-256 171 0
256 -26 -125 -169 -128 -171 0
-257 37 0
-257 -67 0
-257 -164 0
-257 -172 0
-257 -135 0
257 -37 67 164 172 135 0
-258 -178 0
-258 -139 0
-258 -84 0
-258 -41 0
-258 -130 0
258 178 139 84 41 130 0
-259 113 0
-259 -46 0
-259 -130 0
-259 -135 0
-259 -142 0
259 -113 46 130 135 142 0
-260 -77 0
-260 -23 0
-260 -144 0
-260 -40 0
-260 -11 0
260 77 23 144 40 11 0
256 257 258 259 260 0
-261 57 0
-261 -168 0
-261 -24 0
-261 177 0
-261 -186 0
261 -57 168 24 -177 186 0
-262 -15 0
-262 126 0
-262 -142 0
-262 13 0
-262 135 0
262 15 -126 142 -13 -135 0
-263 66 0
-263 -162 0
-263 129 0
-263 64 0
-263 16 0
263 -66 162 -129 -64 -16 0
-264 -141 0
-264 -57 0
-264 70 0
-264 149 0
-264 150 0
264 141 57 -70 -149 -150 0
-265 -136 0
-265 -157 0
-265 180 0
-265 47 0
-265 142 0
265 136 157 -180 -47 -142 0
261 262 263 264 265 0
-266 -145 0
-266 19 0
-266 93 0
-266 -29 0
-266 -175 0
266 145 -19 -93 29 175 0
-267 -117 0
-267 -159 0
-267 -75 0
-267 -167 0
-267 -38 0
267 117 159 75 167 38 0
-268 65 0
-268 -97 0
-268 25 0
-268 -45 0
-268 -41 0
268 -65 97 -25 45 41 0
-269 -143 0
-269 -23 0
-269 170 0
-269 -18 0
-269 -113 0
269 143 23 -170 18 113 0
-270 -179 0
-270 29 0
-270 150 0
-270 71 0
-270 -32 0
270 179 -29 -150 -71 32 0
266 267 268 269 270 0
-271 68 0
-271 124 0
-271 -26 0
-271 135 0
-271 -122 0
271 -68 -124 26 -135 122 0
-272 -28 0
-272 -151 0
-272 -190 0
-272 48 0
-272 -91 0
272 28 151 190 -48 91 0
-273 -62 0
-273 -97 0
-273 -142 0
-273 -96 0
-273 125 0
273 62 97 142 96 -125 0
-274 -161 0
-274 -121 0
-274 68 0
-274 64 0
-274 106 0
274 161 121 -68 -64 -106 0
-275 -106 0
-275 179 0
-275 47 0
-275 -69 0
-275 -184 0
275 106 -179 -47 69 184 0
271 272 273 274 275 0
-276 61 0
-276 20 0
-276 -130 0
-276 -161 0
-276 -57 0
276 -61 -20 130 161 57 0
-277 153 0
-277 -69 0
-277 -17 0
-277 127 0
-277 49 0
277 -153 69 17 -127 -49 0
-278 -76 0
-278 -18 0
-278 -110 0
-278 103 0
-278 -122 0
278 76 18 110 -103 122 0
-279 -4 0
-279 18 0
-279 -50 0
-279 31 0
-279 -118 0
279 4 -18 50 -31 118 0
-280 -88 0
-280 -21 0
-280 -171 0
-280 -3 0
-280 -53 0
280 88 21 171 3 53 0
276 277 278 279 280 0
-281 -62 0
-281 140 0
-281 143 0
-281 -58 0
-281 105 0
281 62 -140 -143 58 -105 0
-282 -125 0
-282 64 0
-282 17 0
-282 -132 0
-282 -85 0
282 125 -64 -17 132 85 0
-283 -119 0
-283 157 0
-283 -65 0
-283 -37 0
-283 -124 0
283 119 -157 65 37 124 0
-284 173 0
-284 44 0
-284 80 0
-284 -112 0
-284 -48 0
284 -173 -44 -80 112 48 0
-285 66 0
-285 81 0
-285 141 0
-285 34 0
-285 136 0
285 -66 -81 -141 -34 -136 0
281 282 283 284 285 0
-286 6 0
-286 43 0
-286 16 0
-286 73 0
-286 -63 0
286 -6 -43 -16 -73 63 0
-287 113 0
-287 -145 0
-287 131 0
-287 -111 0
-287 16 0
287 -113 145 -131 111 -16 0
-288 105 0
-288 -97 0
-288 31 0
-288 59 0
-288 23 0
288 -105 97 -31 -59 -23 0
-289 64 0
-289 114 0
-289 -6 0
-289 -180 0
-289 27 0
289 -64 -114 6 180 -27 0
-290 64 0
-290 137 0
-290 13 0
-290 -5 0
-290 -146 0
290 -64 -137 -13 5 146 0
286 287 288 289 290 0
-291 82 0
-291 -70 0
-291 148 0
-291 44 0
-291 169 0
291 -82 70 -148 -44 -169 0
-292 -27 0
-292 180 0
-292 -111 0
-292 -63 0
-292 -33 0
292 27 -180 111 63 33 0
-293 79 0
-293 -81 0
-293 105 0
-293 21 0
-293 82 0
293 -79 81 -105 -21 -82 0
-294 123 0
-294 39 0
-294 -186 0
-294 34 0
-294 136 0
294 -123 -39 186 -34 -136 0
-295 100 0
-295 3 0
-295 -36 0
-295 80 0
-295 -102 0
295 -100 -3 36 -80 102 0
291 292 293 294 295 0
-296 165 0
-296 144 0
-296 180 0
-296 -170 0
-296 169 0
296 -165 -144 -180 170 -169 0
-297 110 0
-297 -3 0
-297 -56 0
-297 -25 0
-297 32 0
297 -110 3 56 25 -32 0
-298 -97 0
-298 -108 0
-298 71 0
-298 -14 0
-298 -120 0
298 97 108 -71 14 120 0
-299 187 0
-299 129 0
-299 -118 0
-299 -70 0
-299 14 0
299 -187 -129 118 70 -14 0
-300 11 0
-300 156 0
-300 -12 0
-300 52 0
-300 23 0
300 -11 -156 12 -52 -23 0
296 297 298 299 300 0
-301 -58 0
-301 -144 0
-301 -39 0
-301 127 0
-301 -72 0
301 58 144 39 -127 72 0
-302 -86 0
-302 36 0
-302 113 0
-302 76 0
-302 -67 0
302 86 -36 -113 -76 67 0
-303 186 0
-303 133 0
-303 -26 0
-303 42 0
-303 -11 0
303 -186 -133 26 -42 11 0
-304 171 0
-304 124 0
-304 -155 0
-304 -69 0
-304 125 0
304 -171 -124 155 69 -125 0
-305 1 0
-305 189 0
-305 91 0
-305 61 0
-305 -2 0
305 -1 -189 -91 -61 2 0
301 302 303 304 305 0
-306 -104 0
-306 99 0
-306 171 0
-306 -106 0
-306 82 0
306 104 -99 -171 106 -82 0
-307 96 0
-307 -151 0
-307 -187 0
-307 -89 0
-307 -111 0
307 -96 151 187 89 111 0
-308 -180 0
-308 -58 0
-308 145 0
-308 -97 0
-308 141 0
308 180 58 -145 97 -141 0
-309 44 0
-309 152 0
-309 -34 0
-309 -63 0
-309 -76 0
309 -44 -152 34 63 76 0
-310 -71 0
-310 164 0
-310 158 0
-310 182 0
-310 88 0
310 71 -164 -158 -182 -88 0
306 307 308 309 310 0
-311 167 0
-311 -60 0
-311 37 0
-311 -162 0
-311 -87 0
311 -167 60 -37 162 87 0
-312 12 0
-312 67 0
-312 -44 0
-312 -60 0
-312 -144 0
312 -12 -67 44 60 144 0
-313 6 0
-313 109 0
-313 63 0
-313 126 0
-313 25 0
313 -6 -109 -63 -126 -25 0
-314 -11 0
-314 176 0
-314 -80 0
-314 -58 0
-314 -169 0
314 11 -176 80 58 169 0
-315 -131 0
-315 144 0
-315 -36 0
-315 -78 0
-315 -75 0
315 131 -144 36 78 75 0
311 312 313 314 315 0
-316 186 0
-316 -111 0
-316 -184 0
-316 143 0
-316 -65 0
316 -186 111 184 -143 65 0
-317 -185 0
-317 -182 0
-317 -88 0
-317 106 0
-317 166 0
317 185 182 88 -106 -166 0
-318 144 0
-318 -79 0
-318 -161 0
-318 -187 0
-318 -152 0
318 -144 79 161 187 152 0
-319 -175 0
-319 20 0
-319 -11 0
-319 3 0
-319 161 0
319 175 -20 11 -3 -161 0
-320 -61 0
-320 -144 0
-320 76 0
-320 167 0
-320 -174 0
320 61 144 -76 -167 174 0
316 317 318 319 320 0
-321 8 0
-321 140 0
-321 -52 0
-321 67 0
-321 -22 0
321 -8 -140 52 -67 22 0
-322 5 0
-322 -11 0
-322 21 0
-322 -57 0
-322 -80 0
322 -5 11 -21 57 80 0
-323 -185 0
-323 -42 0
-323 -58 0
-323 -158 0
-323 -28 0
323 185 42 58 158 28 0
-324 -146 0
-324 183 0
-324 99 0
-324 188 0
-324 158 0
324 146 -183 -99 -188 -158 0
-325 120 0
-325 -63 0
-325 -67 0
-325 -51 0
-325 -12 0
325 -120 63 67 51 12 0
321 322 323 324 325 0
-326 25 0
-326 23 0
-326 -160 0
-326 63 0
-326 -161 0
326 -25 -23 160 -63 161 0
-327 102 0
-327 47 0
-327 147 0
-327 86 0
-327 49 0
327 -102 -47 -147 -86 -49 0
-328 -162 0
-328 -100 0
-328 90 0
-328 -47 0
-328 5 0
328 162 100 -90 47 -5 0
-329 -10 0
-329 -103 0
-329 -140 0
-329 111 0
-329 -105 0
329 10 103 140 -111 105 0
-330 136 0
-330 189 0
-330 -13 0
-330 14 0
-330 -64 0
330 -136 -189 13 -14 64 0
326 327 328 329 330 0
-331 153 0
-331 167 0
-331 -60 0
-331 47 0
-331 100 0
331 -153 -167 60 -47 -100 0
-332 38 0
-332 -176 0
-332 -6 0
-332 -179 0
-332 -45 0
332 -38 176 6 179 45 0
-333 162 0
-333 -18 0
-333 -89 0
-333 59 0
-333 -5 0
333 -162 18 89 -59 5 0
-334 -62 0
-334 -70 0
-334 23 0
-334 93 0
-334 -86 0
334 62 70 -23 -93 86 0
-335 -17 0
-335 -112 0
-335 160 0
-335 189 0
-335 -94 0
335 17 112 -160 -189 94 0
331 332 333 334 335 0
-336 -69 0
-336 -73 0
-336 163 0
-336 -160 0
-336 22 0
336 69 73 -163 160 -22 0
-337 -10 0
-337 -5 0
-337 63 0
-337 101 0
-337 120 0
337 10 5 -63 -101 -120 0
-338 53 0
-338 -82 0
-338 -12 0
-338 38 0
-338 -14 0
338 -53 82 12 -38 14 0
-339 162 0
-339 -148 0
-339 93 0
-339 -37 0
-339 78 0
339 -162 148 -93 37 -78 0
-340 -102 0
-340 -117 0
-340 34 0
-340 166 0
-340 -13 0
340 102 117 -34 -166 13 0
336 337 338 339 340 0
-341 169 0
-341 -33 0
-341 83 0
-341 158 0
-341 28 0
341 -169 33 -83 -158 -28 0
-342 -161 0
-342 88 0
-342 188 0
-342 176 0
-342 -96 0
342 161 -88 -188 -176 96 0
-343 77 0
-343 -31 0
-343 107 0
-343 4 0
-343 -126 0
343 -77 31 -107 -4 126 0
-344 105 0
-344 -45 0
-344 -186 0
-344 -54 0
-344 160 0
344 -105 45 186 54 -160 0
-345 -135 0
-345 -102 0
-345 9 0
-345 163 0
-345 157 0
345 135 102 -9 -163 -157 0
341 342 343 344 345 0
-346 -84 0
-346 -73 0
-346 61 0
-346 -182 0
-346 -21 0
346 84 73 -61 182 21 0
-347 -115 0
-347 46 0
-347 15 0
-347 171 0
-347 -172 0
347 115 -46 -15 -171 172 0
-348 -29 0
-348 -181 0
-348 105 0
-348 -172 0
-348 -179 0
348 29 181 -105 172 179 0
-349 -169 0
-349 64 0
-349 -54 0
-349 -146 0
-349 -159 0
349 169 -64 54 146 159 0
-350 -86 0
-350 109 0
-350 173 0
-350 90 0
-350 170 0
350 86 -109 -173 -90 -170 0
346 347 348 349 350 0
-351 -169 0
-351 -168 0
-351 4 0
-351 -130 0
-351 37 0
351 169 168 -4 130 -37 0
-352 -37 0
-352 162 0
-352 55 0
-352 28 0
-352 -147 0
352 37 -162 -55 -28 147 0
-353 -17 0
-353 -83 0
-353 27 0
-353 -152 0
-353 -187 0
353 17 83 -27 152 187 0
-354 -78 0
-354 63 0
-354 96 0
-354 71 0
-354 -143 0
354 78 -63 -96 -71 143 0
-355 51 0
-355 189 0
-355 -111 0
-355 119 0
-355 -190 0
355 -51 -189 111 -119 190 0
351 352 353 354 355 0
-356 -82 0
-356 41 0
-356 -87 0
-356 -6 0
-356 -139 0
356 82 -41 87 6 139 0
-357 69 0
-357 -169 0
-357 -176 0
-357 -92 0
-357 132 0
357 -69 169 176 92 -132 0
-358 130 0
-358 -75 0
-358 -30 0
-358 -150 0
-358 -35 0
358 -130 75 30 150 35 0
-359 -128 0
-359 -40 0
-359 -154 0
-359 -133 0
-359 -178 0
359 128 40 154 133 178 0
-360 51 0
-360 -63 0
-360 82 0
-360 -45 0
-360 133 0
360 -51 63 -82 45 -133 0
356 357 358 359 360 0
-361 180 0
-361 -141 0
-361 18 0
-361 12 0
-361 -183 0
361 -180 141 -18 -12 183 0
-362 -130 0
-362 74 0
-362 -187 0
-362 -96 0
-362 -145 0
362 130 -74 187 96 145 0
-363 -114 0
-363 -170 0
-363 -116 0
-363 109 0
-363 133 0
363 114 170 116 -109 -133 0
-364 -15 0
-364 102 0
-364 -30 0
-364 146 0
-364 -97 0
364 15 -102 30 -146 97 0
-365 -127 0
-365 190 0
-365 -54 0
-365 140 0
-365 -69 0
365 127 -190 54 -140 69 0
361 362 363 364 365 0
-366 -51 0
-366 188 0
-366 -148 0
-366 -180 0
-366 54 0
366 51 -188 148 180 -54 0
-367 -165 0
-367 -61 0
-367 9 0
-367 89 0
-367 -55 0
367 165 61 -9 -89 55 0
-368 30 0
-368 103 0
-368 13 0
-368 122 0
-368 -178 0
368 -30 -103 -13 -122 178 0
-369 -159 0
-369 -73 0
-369 28 0
-369 -22 0
-369 -184 0
369 159 73 -28 22 184 0
-370 177 0
-370 180 0
-370 -29 0
-370 -6 0
-370 -170 0
370 -177 -180 29 6 170 0
366 367 368 369 370 0
-371 -188 0
-371 138 0
-371 115 0
-371 25 0
-371 -148 0
371 188 -138 -115 -25 148 0
-372 -54 0
-372 -82 0
-372 173 0
-372 5 0
-372 146 0
372 54 82 -173 -5 -146 0
-373 -88 0
-373 -2 0
-373 -90 0
-373 -178 0
-373 182 0
373 88 2 90 178 -182 0
-374 -45 0
-374 122 0
-374 134 0
-374 -161 0
-374 -136 0
374 45 -122 -134 161 136 0
-375 -181 0
-375 77 0
-375 121 0
-375 12 0
-375 50 0
375 181 -77 -121 -12 -50 0
371 372 373 374 375 0
-376 -65 0
-376 6 0
-376 189 0
-376 -169 0
-376 -156 0
376 65 -6 -189 169 156 0
-377 -22 0
-377 -86 0
-377 -157 0
-377 -187 0
-377 -94 0
377 22 86 157 187 94 0
-378 -160 0
-378 83 0
-378 -138 0
-378 -114 0
-378 -93 0
378 160 -83 138 114 93 0
-379 -139 0
-379 79 0
-379 133 0
-379 46 0
-379 25 0
379 139 -79 -133 -46 -25 0
-380 -160 0
-380 -147 0
-380 113 0
-380 -49 0
-380 53 0
380 160 147 -113 49 -53 0
376 377 378 379 380 0
-381 -18 0
-381 154 0
-381 99 0
-381 29 0
-381 158 0
381 18 -154 -99 -29 -158 0
-382 -166 0
-382 -119 0
-382 -98 0
-382 14 0
-382 156 0
382 166 119 98 -14 -156 0
-383 -151 0
-383 -71 0
-383 -163 0
-383 -53 0
-383 114 0
383 151 71 163 53 -114 0
-384 -102 0
-384 -151 0
-384 65 0
-384 -85 0
-384 -51 0
384 102 151 -65 85 51 0
-385 101 0
-385 127 0
-385 55 0
-385 30 0
-385 168 0
385 -101 -127 -55 -30 -168 0
381 382 383 384 385 0
-386 -168 0
-386 73 0
-386 -155 0
-386 78 0
-386 76 0
386 168 -73 155 -78 -76 0
-387 143 0
-387 78 0
-387 54 0
-387 88 0
-387 -17 0
387 -143 -78 -54 -88 17 0
-388 -182 0
-388 4 0
-388 96 0
-388 -123 0
-388 33 0
388 182 -4 -96 123 -33 0
-389 145 0
-389 -53 0
-389 103 0
-389 77 0
-389 71 0
389 -145 53 -103 -77 -71 0
-390 -98 0
-390 155 0
-390 -27 0
-390 -47 0
-390 -125 0
390 98 -155 27 47 125 0
386 387 388 389 390 0
-391 66 0
-391 -190 0
-391 40 0
-391 17 0
-391 -45 0
391 -66 190 -40 -17 45 0
-392 159 0
-392 76 0
-392 41 0
-392 49 0
-392 -107 0
392 -159 -76 -41 -49 107 0
-393 179 0
-393 -25 0
-393 -167 0
-393 -57 0
-393 -143 0
393 -179 25 167 57 143 0
-394 -58 0
-394 -13 0
-394 158 0
-394 -83 0
-394 -3 0
394 58 13 -158 83 3 0
-395 42 0
-395 37 0
-395 -35 0
-395 28 0
-395 -74 0
395 -42 -37 35 -28 74 0
391 392 393 394 395 0
-396 -190 0
-396 -140 0
-396 165 0
-396 174 0
-396 179 0
396 190 140 -165 -174 -179 0
-397 4 0
-397 11 0
-397 39 0
-397 25 0
-397 -137 0
397 -4 -11 -39 -25 137 0
-398 -111 0
-398 -126 0
-398 -18 0
-398 -115 0
-398 -39 0
398 111 126 18 115 39 0
-399 14 0
-399 -3 0
-399 -48 0
-399 -72 0
-399 167 0
399 -14 3 48 72 -167 0
-400 -66 0
-400 -13 0
-400 18 0
-400 -95 0
-400 109 0
400 66 13 -18 95 -109 0
396 397 398 399 400 0
-401 120 0
-401 95 0
-401 -71 0
-401 -154 0
-401 63 0
401 -120 -95 71 154 -63 0
-402 104 0
-402 165 0
-402 74 0
-402 35 0
-402 -1 0
402 -104 -165 -74 -35 1 0
-403 -143 0
-403 90 0
-403 -70 0
-403 -74 0
-403 -71 0
403 143 -90 70 74 71 0
-404 -90 0
-404 -47 0
-404 -72 0
-404 -70 0
-404 157 0
404 90 47 72 70 -157 0
-405 -132 0
-405 124 0
-405 -146 0
-405 161 0
-405 80 0
405 132 -124 146 -161 -80 0
401 402 403 404 405 0
-406 -144 0
-406 25 0
-406 89 0
-406 -140 0
-406 149 0
406 144 -25 -89 140 -149 0
-407 -165 0
-407 176 0
-407 14 0
-407 55 0
-407 125 0
407 165 -176 -14 -55 -125 0
-408 -31 0
-408 28 0
-408 154 0
-408 -93 0
-408 126 0
408 31 -28 -154 93 -126 0
-409 -179 0
-409 -100 0
-409 -129 0
-409 -28 0
-409 -99 0
409 179 100 129 28 99 0
-410 -60 0
-410 43 0
-410 -3 0
-410 -5 0
-410 88 0
410 60 -43 3 5 -88 0
406 407 408 409 410 0
-411 8 0
-411 -55 0
-411 -52 0
-411 120 0
-411 150 0
411 -8 55 52 -120 -150 0
-412 151 0
-412 -61 0
-412 -96 0
-412 -107 0
-412 -7 0
412 -151 61 96 107 7 0
-413 -123 0
-413 -91 0
-413 -171 0
-413 -27 0
-413 108 0
413 123 91 171 27 -108 0
-414 49 0
-414 -127 0
-414 144 0
-414 115 0
-414 -104 0
414 -49 127 -144 -115 104 0
-415 28 0
-415 143 0
-415 -166 0
-415 24 0
-415 -29 0
415 -28 -143 166 -24 29 0
411 412 413 414 415 0
-416 -24 0
-416 -3 0
-416 45 0
-416 66 0
-416 -137 0
416 24 3 -45 -66 137 0
-417 132 0
-417 35 0
-417 40 0
-417 -110 0
-417 -170 0
417 -132 -35 -40 110 170 0
-418 -133 0
-418 173 0
-418 -57 0
-418 175 0
-418 -2 0
418 133 -173 57 -175 2 0
-419 38 0
-419 121 0
-419 -76 0
-419 -128 0
-419 24 0
419 -38 -121 76 128 -24 0
-420 -146 0
-420 -4 0
-420 88 0
-420 -93 0
-420 102 0
420 146 4 -88 93 -102 0
416 417 418 419 420 0
-421 88 0
-421 -121 0
-421 -189 0
-421 -168 0
-421 -71 0
421 -88 121 189 168 71 0
-422 147 0
-422 56 0
-422 -188 0
-422 159 0
-422 110 0
422 -147 -56 188 -159 -110 0
-423 103 0
-423 -100 0
-423 189 0
-423 101 0
-423 99 0
423 -103 100 -189 -101 -99 0
-424 127 0
-424 -109 0
-424 -16 0
-424 145 0
-424 -32 0
424 -127 109 16 -145 32 0
-425 37 0
-425 158 0
-425 188 0
-425 13 0
-425 45 0
425 -37 -158 -188 -13 -45 0
421 422 423 424 425 0
-426 2 0
-426 -142 0
-426 7 0
-426 129 0
-426 112 0
426 -2 142 -7 -129 -112 0
-427 -165 0
-427 51 0
-427 94 0
-427 -106 0
-427 149 0
427 165 -51 -94 106 -149 0
-428 189 0
-428 -12 0
-428 -154 0
-428 -176 0
-428 119 0
428 -189 12 154 176 -119 0
-429 -135 0
-429 -167 0
-429 157 0
-429 -37 0
-429 -74 0
429 135 167 -157 37 74 0
-430 174 0
-430 -131 0
-430 17 0
-430 52 0
-430 148 0
430 -174 131 -17 -52 -148 0
426 427 428 429 430 0
